37826 58232
17422 56337
42793 61095
25809 5655
44602 3933
44491 1935
32185 38826
59127 21979
16838 12986
29814 37837
4404 13279
22303 58449
12410 14182
55832 41262
61804 28536
40058 4244
2057 58094
17437 37115
8966 27946
26432 11727
63604 61350
10138 46025
38966 19782
18916 29031
37969 1078
7510 50198
5389 11941
21339 20553
51930 27004
42109 22997
59424 60184
18595 26218
53052 23928
42662 58229
42788 2515
1298 28210
36154 2215
47314 64209
44942 26050
14586 64910
61419 16406
5790 60855
4632 26185
16281 15874
20340 41251
22139 46593
32188 45592
12739 14763
17706 18424
32001 15180
55117 7726
18312 11409
24959 42315
12255 54420
19182 16031
44361 4201
3411 54174
23734 40934
55593 14259
20077 41166
48149 57739
58571 56132
60554 7766
29509 33962
5900 62012
32622 43520
29950 21989
40314 56570
3709 44461
59116 2358
46775 14529
19376 13050
54841 60815
1679 50939
26597 45066
36891 37695
26674 395
58361 7045
16718 32170
2229 51283
8733 52232
